(set-logic QF_BV)
(declare-fun _substvar_399_ () (_ BitVec 31))
(declare-fun _substvar_201_ () (_ BitVec 31))
(declare-fun _substvar_381_ () (_ BitVec 31))
(declare-fun _substvar_560_ () Bool)
(declare-fun _substvar_554_ () Bool)
(declare-fun _substvar_209_ () (_ BitVec 31))
(declare-fun _substvar_406_ () (_ BitVec 31))
(assert (and true true true true true true true true true true true true true true true true true true true true true true true true true true true true true true true true true true true true true true true true true true true true true true true true true true true true true true true true true true true (= _substvar_406_ (_ bv0 31)) (ite _substvar_560_ (= _substvar_201_ (_ bv0 31)) (= _substvar_201_ (concat ((_ extract 29 0) _substvar_406_) (_ bv0 1)))) (= _substvar_209_ (concat ((_ extract 29 0) _substvar_201_) (bvxor ((_ extract 30 30) _substvar_201_) ((_ extract 27 27) _substvar_201_)))) (ite _substvar_554_ (= _substvar_381_ (_ bv0 31)) (= _substvar_381_ (concat ((_ extract 29 0) _substvar_209_) (_ bv0 1)))) (= _substvar_399_ (concat (_ bv0 30) (bvxor ((_ extract 30 30) _substvar_381_) ((_ extract 27 27) _substvar_381_)))) true true true true true true true true true true (= (or false false false false false (= (_ bv0 31) _substvar_399_)) false)))
(check-sat)
(exit)
